NAME : pr20.tsp.377614.tour
COMMENT : Length = 377614
COMMENT : Found by LKH [Keld Helsgaun] Tue Jun 13 20:27:06 2017
TYPE : TOUR
DIMENSION : 20
TOUR_SECTION
1
6
8
4
5
13
2
3
15
10
12
11
17
9
14
16
20
19
18
7
-1
EOF
